p cnf 7 13
-3 4 1 5 6 0
-1 -4 2 3 -6 0
-6 -7 -3 -2 4 0
-3 5 -7 -1 6 0
-5 1 -3 -4 6 0
6 -5 -2 4 1 0
-3 -6 1 7 -4 0
-5 -7 2 -1 3 0
6 -2 -1 -5 4 0
-3 2 -1 -7 -4 0
6 -3 1 -2 5 0
-2 -1 3 -4 7 0
3 7 5 4 -2 0
